! HF def2-SVP
! OPT Freq
! PAL2
%maxcore 4000
%basis
        NewECP Fe "SDD" end
        NewGTO Fe "def2-TZVP" end
end
* xyz $CHRG $MULTI
COORDENADAS DAS ESPÉCIES
*
